<instance format="XCSP3" type="CSP">
  <variables>
    <var id="x0"> 6 9 10 </var>
    <var id="x1"> 2 5 </var>
    <var id="x2"> 6 9..11 </var>
    <var id="x3"> 2 5 8 9 </var>
    <var id="x4"> 2 8 11 </var>
    <var id="x5"> 2 5 8 9 </var>
    <var id="x6"> 2 5 8 10 11 </var>
    <var id="x7"> 4 7 9 </var>
    <var id="x8"> 3 4 8 10 12 </var>
    <var id="x9"> 4 7 11 </var>
    <var id="x10"> 4 7 9 10 12 </var>
    <var id="x11"> 3 4 7 12 </var>
    <var id="x12"> 7..9 11 12 </var>
    <var id="x13"> 3 7 8 11 </var>
    <var id="x14"> 3 8 9 11 12 </var>
    <var id="x15"> 7 14 </var>
    <var id="x16"> 1 3 8 12 14 </var>
    <var id="x17"> 1 8 14 </var>
    <var id="x18"> 2 3 7 12 14 </var>
    <var id="x19"> 7 12 14 </var>
    <var id="x20"> 7 8 12 </var>
    <var id="x21"> 3 8 12 </var>
    <var id="x22"> 4 9 13 14 </var>
    <var id="x23"> 13 </var>
    <var id="x24"> 1 2 4 11 </var>
    <var id="x25"> 1 4 13 14 </var>
    <var id="x26"> 9 11 </var>
    <var id="x27"> 1 2 11 14 </var>
    <var id="x28"> 2 9 </var>
    <var id="x29"> 0 4 7 </var>
    <var id="x30"> 0 7 8 12 </var>
    <var id="x31"> 1 4 8 12 </var>
    <var id="x32"> 1 2 4 7 </var>
    <var id="x33"> 0 7 8 12 </var>
    <var id="x34"> 0 8 12 </var>
    <var id="x35"> 0 2 7 8 </var>
    <var id="x36"> 4 6 7 </var>
    <var id="x37"> 4 6 7 12 </var>
    <var id="x38"> 0 4 8 12 </var>
    <var id="x39"> 0 8 12 </var>
    <var id="x40"> 3 7 8 12 </var>
    <var id="x41"> 0 3 8 12 </var>
    <var id="x42"> 0 7 8 </var>
    <var id="x43"> 7 8 12 13 </var>
    <var id="x44"> 8 10 12 14 </var>
    <var id="x45"> 7 10 12 14 </var>
    <var id="x46"> 8 11 12 </var>
    <var id="x47"> 7 12 14 </var>
    <var id="x48"> 8 11..13 </var>
    <var id="x49"> 7 8 10 11 </var>
    <var id="x50"> 6 7 13 </var>
    <var id="x51"> 2 11 </var>
    <var id="x52"> 6 13 14 </var>
    <var id="x53"> 6 7 11 14 </var>
    <var id="x54"> 2 5 13 </var>
    <var id="x55"> 2 7 11 14 </var>
    <var id="x56"> 2 5 7 </var>
    <var id="x57"> 3 12 14 </var>
    <var id="x58"> 7 9 12 14 </var>
    <var id="x59"> 13 14 </var>
    <var id="x60"> 3 7 12 14 </var>
    <var id="x61"> 7 9 12 14 </var>
    <var id="x62"> 0 9 12 13 </var>
    <var id="x63"> 3 7 14 </var>
    <var id="x64"> 6 8 10 12 </var>
    <var id="x65"> 6 7 10 12 </var>
    <var id="x66"> 8 11 12 </var>
    <var id="x67"> 6 8 10 </var>
    <var id="x68"> 6 7 10..12 </var>
    <var id="x69"> 5 8 12 </var>
    <var id="x70"> 8 11 12 </var>
    <var id="x71"> 0 4 5 9 14 </var>
    <var id="x72"> 4 6 </var>
    <var id="x73"> 4 6 9 14 </var>
    <var id="x74"> 0 4 </var>
    <var id="x75"> 3..5 14 </var>
    <var id="x76"> 0 5 9 </var>
    <var id="x77"> 3 14 </var>
    <var id="x78"> 6..8 12 </var>
    <var id="x79"> 1 6 8 </var>
    <var id="x80"> 6 7 11 12 </var>
    <var id="x81"> 5 7 8 11 12 </var>
    <var id="x82"> 5 8 12 </var>
    <var id="x83"> 5 7 8 12 </var>
    <var id="x84"> 5 7 8 11 </var>
    <var id="x85"> 0 8 12 13 </var>
    <var id="x86"> 2 13 </var>
    <var id="x87"> 0 5 8 9 12 </var>
    <var id="x88"> 2 8 </var>
    <var id="x89"> 2 5 8 9 12 </var>
    <var id="x90"> 0 8 9 12 13 </var>
    <var id="x91"> 0 2 5 8 </var>
    <var id="x92"> 0 4 7 13 14 </var>
    <var id="x93"> 4 8 10 14 </var>
    <var id="x94"> 4 7 13 </var>
    <var id="x95"> 4 7 14 </var>
    <var id="x96"> 7 10 14 </var>
    <var id="x97"> 7 8 </var>
    <var id="x98"> 0 7 8 10 </var>
    <var id="x99"> 0 4 9 </var>
    <var id="x100"> 0 3 12 </var>
    <var id="x101"> 1 3 4 12 </var>
    <var id="x102"> 1 2 4 </var>
    <var id="x103"> 0..2 4 12 </var>
    <var id="x104"> 1 4 </var>
    <var id="x105"> 0 2 9 12 </var>
  </variables>
  <constraints>
    <group>
      <allDifferent> %... </allDifferent>
      <args> x0 x1 x2 x3 x4 x5 x6 </args>
      <args> x7 x8 x9 x10 x11 x12 x13 x14 </args>
      <args> x15 x16 x17 x18 x19 x20 x21 </args>
      <args> x22 x23 x24 x25 x26 x27 x28 </args>
      <args> x29 x30 x31 x32 x33 x34 x35 </args>
      <args> x36 x37 x38 x39 x40 x41 x42 </args>
      <args> x43 x44 x45 x46 x47 x48 x49 </args>
      <args> x50 x51 x52 x53 x54 x55 x56 </args>
      <args> x57 x58 x59 x60 x61 x62 x63 </args>
      <args> x64 x65 x66 x67 x68 x69 x70 </args>
      <args> x71 x72 x73 x74 x75 x76 x77 </args>
      <args> x78 x79 x80 x81 x82 x83 x84 </args>
      <args> x85 x86 x87 x88 x89 x90 x91 </args>
      <args> x92 x93 x94 x95 x96 x97 x98 </args>
      <args> x99 x100 x101 x102 x103 x104 x105 </args>
      <args> x7 x15 x22 x29 x71 x92 x99 </args>
      <args> x23 x30 x43 x50 x78 x85 x100 </args>
      <args> x8 x16 x31 x44 x57 x64 x93 x101 </args>
      <args> x9 x32 x36 x72 x86 x94 x102 </args>
      <args> x0 x10 x37 x45 x58 x65 x73 </args>
      <args> x24 x38 x46 x51 x66 x74 x103 </args>
      <args> x17 x25 x52 x59 x67 x79 x104 </args>
      <args> x1 x11 x18 x47 x60 x75 x95 </args>
      <args> x2 x19 x53 x61 x68 x80 x96 </args>
      <args> x12 x20 x26 x33 x76 x81 x87 </args>
      <args> x3 x39 x54 x62 x69 x82 x105 </args>
      <args> x4 x13 x27 x55 x63 x77 x88 </args>
      <args> x5 x28 x40 x56 x83 x89 x97 </args>
      <args> x14 x21 x34 x41 x48 x70 x90 </args>
      <args> x6 x35 x42 x49 x84 x91 x98 </args>
    </group>
  </constraints>
</instance>

